
<<< setup

Tried aggregator 1 time.
LP Presolve eliminated 83 rows and 64 columns.
Reduced LP has 1 rows, 4 columns, and 4 nonzeros.
Presolve time = 0.00 sec. (0.03 ticks)

Iteration log . . .
Iteration:     1   Dual objective     =           846.180641
main returns 0

<<< main


<<< done

